
Gurobi 11.0.3 (linux64) logging started Fri Nov 22 01:36:14 2024

Set parameter LogFile to value "/home/yihong/Coding/OR_SUC/SUC_results_bigM100000_thread4/case24_ieee_rts_theta0.5_epsilon0.05_gurobi_seed720000_num_gen100_N_WDR100_load_scaling_factor1_exact_T24quadra_cost.txt"
Set parameter TimeLimit to value 3600
Gurobi Optimizer version 11.0.3 build v11.0.3rc0 (linux64 - "Ubuntu 20.04.6 LTS")

CPU model: AMD EPYC 7532 32-Core Processor, instruction set [SSE2|AVX|AVX2]
Thread count: 64 physical cores, 128 logical processors, using up to 4 threads

Optimize a model with 57659 rows, 29961 columns and 1325658 nonzeros
Model fingerprint: 0x27682dbb
Model has 2400 quadratic constraints
Variable types: 27461 continuous, 2500 integer (2500 binary)
Coefficient statistics:
  Matrix range     [1e-04, 1e+05]
  QMatrix range    [2e-03, 8e-03]
  QLMatrix range   [5e-01, 6e+01]
  Objective range  [1e+00, 1e+00]
  Bounds range     [1e+00, 1e+00]
  RHS range        [1e+00, 1e+05]
Presolve removed 47098 rows and 12700 columns
Presolve time: 0.41s
Presolved: 10561 rows, 17261 columns, 59882 nonzeros
Presolved model has 2400 quadratic constraint(s)
Variable types: 14770 continuous, 2491 integer (2491 binary)

Root relaxation: objective 4.671596e+04, 8698 iterations, 0.27 seconds (0.37 work units)

    Nodes    |    Current Node    |     Objective Bounds      |     Work
 Expl Unexpl |  Obj  Depth IntInf | Incumbent    BestBd   Gap | It/Node Time

     0     0 46715.9645    0   38          - 46715.9645      -     -    0s
     0     0 317758.736    0  760          - 317758.736      -     -    1s
     0     0 352012.251    0  744          - 352012.251      -     -    1s
     0     0 634370.315    0  691          - 634370.315      -     -    1s
     0     0 634712.676    0  522          - 634712.676      -     -    1s
     0     0 635369.396    0  452          - 635369.396      -     -    2s
     0     0 635380.884    0  414          - 635380.884      -     -    2s
     0     0 635381.736    0  401          - 635381.736      -     -    2s
     0     0 635387.175    0  401          - 635387.175      -     -    2s
     0     0 635387.175    0  401          - 635387.175      -     -    2s
     0     0 635387.175    0  401          - 635387.175      -     -    2s
     0     2 635387.175    0  401          - 635387.175      -     -    4s
   126   201 635494.471   33  324          - 635397.322      -  39.1    5s
H  695   910                    636507.88851 635397.322  0.17%  16.3    6s
*  695   910             227    636507.88851 635397.322  0.17%  16.3    6s
H  989   307                    635712.79210 635399.614  0.05%  12.3    6s
*  989   307             249    635712.79210 635400.550  0.05%  12.3    6s

Cutting planes:
  Gomory: 6
  Implied bound: 460
  MIR: 166
  Flow cover: 137
  RLT: 2
  Relax-and-lift: 24

Explored 1015 nodes (38447 simplex iterations) in 7.29 seconds (8.85 work units)
Thread count was 4 (of 128 available processors)

Solution count 3: 635713 635713 636508 

Optimal solution found (tolerance 1.00e-03)
Warning: max constraint violation (3.8301e-07) exceeds tolerance
Best objective 6.357127920981e+05, best bound 6.354005503781e+05, gap 0.0491%
